(set-logic HORN)
(declare-fun state (Int (Array Int Int) (Array Int Int) (Array Int Int) (Array Int Int) Int Int (Array Int Int) (Array Int Int) Int Int Int Int Int Int Int Int Int Int Int Int Bool Bool Bool Bool Bool (Array Int Int)) Bool)
(assert (forall ((|hhv_ULTIMATE.start_ULTIMATE.startEXIT_0_Int| Int) (|hhv_ULTIMATE.start_ULTIMATE.startEXIT_1_Array_Int_Int| (Array Int Int)) (|hhv_ULTIMATE.start_ULTIMATE.startEXIT_2_Array_Int_Int| (Array Int Int)) (|hhv_ULTIMATE.start_ULTIMATE.startEXIT_3_Array_Int_Array_Int_Int| (Array Int Int)) (|hhv_ULTIMATE.start_ULTIMATE.startEXIT_4_Array_Int_Array_Int_Int| (Array Int Int)) (|hhv_ULTIMATE.start_ULTIMATE.startEXIT_5_Int| Int) (|hhv_ULTIMATE.start_ULTIMATE.startEXIT_6_Int| Int) (|hhv_ULTIMATE.start_ULTIMATE.startEXIT_7_Array_Int_Int| (Array Int Int)) (|hhv_ULTIMATE.start_ULTIMATE.startEXIT_8_Array_Int_Int| (Array Int Int)) (|hhv_ULTIMATE.start_ULTIMATE.startEXIT_9_Int| Int) (|hhv_ULTIMATE.start_ULTIMATE.startEXIT_10_Int| Int) (|hhv_ULTIMATE.start_ULTIMATE.startEXIT_11_Int| Int) (|hhv_ULTIMATE.start_ULTIMATE.startEXIT_12_Int| Int) (|hhv_ULTIMATE.start_ULTIMATE.startEXIT_13_Int| Int) (|hhv_ULTIMATE.start_ULTIMATE.startEXIT_14_Int| Int) (|hhv_ULTIMATE.start_ULTIMATE.startEXIT_15_Int| Int) (|hhv_ULTIMATE.start_ULTIMATE.startEXIT_16_Int| Int) (|hhv_ULTIMATE.start_ULTIMATE.startEXIT_17_Int| Int) (|hhv_ULTIMATE.start_ULTIMATE.startEXIT_18_Int| Int) (|hhv_ULTIMATE.start_ULTIMATE.startEXIT_19_Int| Int) (|hhv_ULTIMATE.start_ULTIMATE.startEXIT_20_Int| Int) (|hbv_ULTIMATE.start_L2-1_21_Bool| Bool) (|.loc.5| Bool) (|.loc.6| Bool) (|.loc.7| Bool) (|.loc.8| Bool) (|hbv_ULTIMATE.start_L-1_1_Array_Int_Int| (Array Int Int)) (|.x.274| Int) (|.x.272| (Array Int Int)) (|.x.270| Int) (|.x.268| (Array Int Int)) (|.x.264| Int) (|.x.266| (Array Int Int)) (|.x.265| (Array Int Int)) (|hhv_ULTIMATE.start_ULTIMATE.startEXIT_21_Bool| Bool) (|.x.275| Int) (|.x.276| Int) (|.x.277| Int) (|.x.279| Int) (|.loc.12| Bool) (|.loc.10| Bool) (|.loc.11| Bool) (|.x.280| Int) (|.x.278| Int) (|.x.283| Int) (|.loc.9| Bool) (|.x.284| Int) (|.x.282| Int) (|.x.281| Int) (|.x.267| (Array Int Int)) (|.x.273| Int) (|.x.269| Int) (|.x.271| (Array Int Int)) (|.xtv.1| (Array Int Int))) (=> (and (and (and (and .loc.5 (not .loc.6)) (not .loc.7)) (not .loc.8)) (and (and (and (and (and (= hhv_ULTIMATE.start_ULTIMATE.startEXIT_1_Array_Int_Int hhv_ULTIMATE.start_ULTIMATE.startEXIT_2_Array_Int_Int) (= hhv_ULTIMATE.start_ULTIMATE.startEXIT_7_Array_Int_Int hhv_ULTIMATE.start_ULTIMATE.startEXIT_8_Array_Int_Int)) (= hhv_ULTIMATE.start_ULTIMATE.startEXIT_5_Int hhv_ULTIMATE.start_ULTIMATE.startEXIT_6_Int)) (not hbv_ULTIMATE.start_L2-1_21_Bool)) (= hhv_ULTIMATE.start_ULTIMATE.startEXIT_3_Array_Int_Array_Int_Int hhv_ULTIMATE.start_ULTIMATE.startEXIT_4_Array_Int_Array_Int_Int)) (= hhv_ULTIMATE.start_ULTIMATE.startEXIT_9_Int hhv_ULTIMATE.start_ULTIMATE.startEXIT_10_Int))) (state |hhv_ULTIMATE.start_ULTIMATE.startEXIT_0_Int| |hhv_ULTIMATE.start_ULTIMATE.startEXIT_1_Array_Int_Int| |hhv_ULTIMATE.start_ULTIMATE.startEXIT_2_Array_Int_Int| |hhv_ULTIMATE.start_ULTIMATE.startEXIT_3_Array_Int_Array_Int_Int| |hhv_ULTIMATE.start_ULTIMATE.startEXIT_4_Array_Int_Array_Int_Int| |hhv_ULTIMATE.start_ULTIMATE.startEXIT_5_Int| |hhv_ULTIMATE.start_ULTIMATE.startEXIT_6_Int| |hhv_ULTIMATE.start_ULTIMATE.startEXIT_7_Array_Int_Int| |hhv_ULTIMATE.start_ULTIMATE.startEXIT_8_Array_Int_Int| |hhv_ULTIMATE.start_ULTIMATE.startEXIT_9_Int| |hhv_ULTIMATE.start_ULTIMATE.startEXIT_10_Int| |hhv_ULTIMATE.start_ULTIMATE.startEXIT_11_Int| |hhv_ULTIMATE.start_ULTIMATE.startEXIT_12_Int| |hhv_ULTIMATE.start_ULTIMATE.startEXIT_13_Int| |hhv_ULTIMATE.start_ULTIMATE.startEXIT_14_Int| |hhv_ULTIMATE.start_ULTIMATE.startEXIT_15_Int| |hhv_ULTIMATE.start_ULTIMATE.startEXIT_16_Int| |hhv_ULTIMATE.start_ULTIMATE.startEXIT_17_Int| |hhv_ULTIMATE.start_ULTIMATE.startEXIT_18_Int| |hhv_ULTIMATE.start_ULTIMATE.startEXIT_19_Int| |hhv_ULTIMATE.start_ULTIMATE.startEXIT_20_Int| |hbv_ULTIMATE.start_L2-1_21_Bool| |.loc.5| |.loc.6| |.loc.7| |.loc.8| |hbv_ULTIMATE.start_L-1_1_Array_Int_Int|))))
(assert (forall ((|hhv_ULTIMATE.start_ULTIMATE.startEXIT_0_Int| Int) (|hhv_ULTIMATE.start_ULTIMATE.startEXIT_1_Array_Int_Int| (Array Int Int)) (|hhv_ULTIMATE.start_ULTIMATE.startEXIT_2_Array_Int_Int| (Array Int Int)) (|hhv_ULTIMATE.start_ULTIMATE.startEXIT_3_Array_Int_Array_Int_Int| (Array Int Int)) (|hhv_ULTIMATE.start_ULTIMATE.startEXIT_4_Array_Int_Array_Int_Int| (Array Int Int)) (|hhv_ULTIMATE.start_ULTIMATE.startEXIT_5_Int| Int) (|hhv_ULTIMATE.start_ULTIMATE.startEXIT_6_Int| Int) (|hhv_ULTIMATE.start_ULTIMATE.startEXIT_7_Array_Int_Int| (Array Int Int)) (|hhv_ULTIMATE.start_ULTIMATE.startEXIT_8_Array_Int_Int| (Array Int Int)) (|hhv_ULTIMATE.start_ULTIMATE.startEXIT_9_Int| Int) (|hhv_ULTIMATE.start_ULTIMATE.startEXIT_10_Int| Int) (|hhv_ULTIMATE.start_ULTIMATE.startEXIT_11_Int| Int) (|hhv_ULTIMATE.start_ULTIMATE.startEXIT_12_Int| Int) (|hhv_ULTIMATE.start_ULTIMATE.startEXIT_13_Int| Int) (|hhv_ULTIMATE.start_ULTIMATE.startEXIT_14_Int| Int) (|hhv_ULTIMATE.start_ULTIMATE.startEXIT_15_Int| Int) (|hhv_ULTIMATE.start_ULTIMATE.startEXIT_16_Int| Int) (|hhv_ULTIMATE.start_ULTIMATE.startEXIT_17_Int| Int) (|hhv_ULTIMATE.start_ULTIMATE.startEXIT_18_Int| Int) (|hhv_ULTIMATE.start_ULTIMATE.startEXIT_19_Int| Int) (|hhv_ULTIMATE.start_ULTIMATE.startEXIT_20_Int| Int) (|hbv_ULTIMATE.start_L2-1_21_Bool| Bool) (|.loc.5| Bool) (|.loc.6| Bool) (|.loc.7| Bool) (|.loc.8| Bool) (|hbv_ULTIMATE.start_L-1_1_Array_Int_Int| (Array Int Int)) (|.x.274| Int) (|.x.272| (Array Int Int)) (|.x.270| Int) (|.x.268| (Array Int Int)) (|.x.264| Int) (|.x.266| (Array Int Int)) (|.x.265| (Array Int Int)) (|hhv_ULTIMATE.start_ULTIMATE.startEXIT_21_Bool| Bool) (|.x.275| Int) (|.x.276| Int) (|.x.277| Int) (|.x.279| Int) (|.loc.12| Bool) (|.loc.10| Bool) (|.loc.11| Bool) (|.x.280| Int) (|.x.278| Int) (|.x.283| Int) (|.loc.9| Bool) (|.x.284| Int) (|.x.282| Int) (|.x.281| Int) (|.x.267| (Array Int Int)) (|.x.273| Int) (|.x.269| Int) (|.x.271| (Array Int Int)) (|.xtv.1| (Array Int Int))) (=> (and (state |hhv_ULTIMATE.start_ULTIMATE.startEXIT_0_Int| |hhv_ULTIMATE.start_ULTIMATE.startEXIT_1_Array_Int_Int| |hhv_ULTIMATE.start_ULTIMATE.startEXIT_2_Array_Int_Int| |hhv_ULTIMATE.start_ULTIMATE.startEXIT_3_Array_Int_Array_Int_Int| |hhv_ULTIMATE.start_ULTIMATE.startEXIT_4_Array_Int_Array_Int_Int| |hhv_ULTIMATE.start_ULTIMATE.startEXIT_5_Int| |hhv_ULTIMATE.start_ULTIMATE.startEXIT_6_Int| |hhv_ULTIMATE.start_ULTIMATE.startEXIT_7_Array_Int_Int| |hhv_ULTIMATE.start_ULTIMATE.startEXIT_8_Array_Int_Int| |hhv_ULTIMATE.start_ULTIMATE.startEXIT_9_Int| |hhv_ULTIMATE.start_ULTIMATE.startEXIT_10_Int| |hhv_ULTIMATE.start_ULTIMATE.startEXIT_11_Int| |hhv_ULTIMATE.start_ULTIMATE.startEXIT_12_Int| |hhv_ULTIMATE.start_ULTIMATE.startEXIT_13_Int| |hhv_ULTIMATE.start_ULTIMATE.startEXIT_14_Int| |hhv_ULTIMATE.start_ULTIMATE.startEXIT_15_Int| |hhv_ULTIMATE.start_ULTIMATE.startEXIT_16_Int| |hhv_ULTIMATE.start_ULTIMATE.startEXIT_17_Int| |hhv_ULTIMATE.start_ULTIMATE.startEXIT_18_Int| |hhv_ULTIMATE.start_ULTIMATE.startEXIT_19_Int| |hhv_ULTIMATE.start_ULTIMATE.startEXIT_20_Int| |hbv_ULTIMATE.start_L2-1_21_Bool| |.loc.5| |.loc.6| |.loc.7| |.loc.8| |hbv_ULTIMATE.start_L-1_1_Array_Int_Int|) (let ((.def_37 (not .loc.6))) (let ((.def_39 (not .loc.7))) (let ((.def_74 (= hhv_ULTIMATE.start_ULTIMATE.startEXIT_1_Array_Int_Int .x.265))) (let ((.def_78 (= hhv_ULTIMATE.start_ULTIMATE.startEXIT_11_Int .x.275))) (let ((.def_81 (= hhv_ULTIMATE.start_ULTIMATE.startEXIT_12_Int .x.276))) (let ((.def_84 (= hhv_ULTIMATE.start_ULTIMATE.startEXIT_13_Int .x.277))) (let ((.def_87 (= hhv_ULTIMATE.start_ULTIMATE.startEXIT_15_Int .x.279))) (let ((.def_89 (not .loc.5))) (let ((.def_100 (= hbv_ULTIMATE.start_L2-1_21_Bool hhv_ULTIMATE.start_ULTIMATE.startEXIT_21_Bool))) (let ((.def_107 (not .loc.10))) (let ((.def_110 (not .loc.11))) (let ((.def_113 (= hhv_ULTIMATE.start_ULTIMATE.startEXIT_14_Int 0))) (let ((.def_117 (and .def_84 (and .def_81 (and .def_74 .def_78))))) (let ((.def_118 (and .def_87 .def_117))) (let ((.def_123 (not .loc.12))) (let ((.def_129 (= hhv_ULTIMATE.start_ULTIMATE.startEXIT_16_Int .x.280))) (let ((.def_131 (= hhv_ULTIMATE.start_ULTIMATE.startEXIT_14_Int .x.278))) (let ((.def_134 (= hhv_ULTIMATE.start_ULTIMATE.startEXIT_19_Int .x.283))) (let ((.def_137 (not .loc.9))) (let ((.def_148 (select hhv_ULTIMATE.start_ULTIMATE.startEXIT_3_Array_Int_Array_Int_Int hhv_ULTIMATE.start_ULTIMATE.startEXIT_13_Int))) (let ((.def_153 (<= 100000 hhv_ULTIMATE.start_ULTIMATE.startEXIT_20_Int))) (let ((.def_169 (= hhv_ULTIMATE.start_ULTIMATE.startEXIT_20_Int .x.284))) (let ((.def_171 (= hhv_ULTIMATE.start_ULTIMATE.startEXIT_18_Int .x.282))) (let ((.def_181 (and .def_87 (and .def_117 .def_131)))) (let ((.def_197 (and .def_134 (and .def_171 (and .def_129 .def_181))))) (let ((.def_208 (and hbv_ULTIMATE.start_L2-1_21_Bool .def_74))) (let ((.def_217 (and .def_169 (and .def_134 (and .def_171 (and .def_129 (and .def_87 (and .def_131 (and .def_84 (and .def_81 (and .def_78 .def_208))))))))))) (let ((.def_228 (and .def_169 .def_197))) (let ((.def_248 (<= 100000 hhv_ULTIMATE.start_ULTIMATE.startEXIT_17_Int))) (let ((.def_251 (and .def_89 (and .loc.6 .def_228)))) (let ((.def_261 (= hhv_ULTIMATE.start_ULTIMATE.startEXIT_17_Int .x.281))) (let ((.def_263 (= hhv_ULTIMATE.start_ULTIMATE.startEXIT_3_Array_Int_Array_Int_Int .x.267))) (and (and (not .loc.8) (and (= hhv_ULTIMATE.start_ULTIMATE.startEXIT_10_Int .x.274) (and (= hhv_ULTIMATE.start_ULTIMATE.startEXIT_8_Array_Int_Int .x.272) (and (= hhv_ULTIMATE.start_ULTIMATE.startEXIT_6_Int .x.270) (and (= hhv_ULTIMATE.start_ULTIMATE.startEXIT_4_Array_Int_Array_Int_Int .x.268) (and (= hhv_ULTIMATE.start_ULTIMATE.startEXIT_0_Int .x.264) (= hhv_ULTIMATE.start_ULTIMATE.startEXIT_2_Array_Int_Int .x.266))))))) (or (and (or (or (or (and (or (or (or (or (or (or (and (or (and (or (and (or (and (and (and (and (and (and .def_74 hhv_ULTIMATE.start_ULTIMATE.startEXIT_21_Bool) .def_78) .def_81) .def_84) .def_87) .def_89) (and (or hbv_ULTIMATE.start_L2-1_21_Bool (and (= .x.279 0) (= .x.265 (store hhv_ULTIMATE.start_ULTIMATE.startEXIT_1_Array_Int_Int hhv_ULTIMATE.start_ULTIMATE.startEXIT_13_Int 0)))) (and (and .loc.5 (or hhv_ULTIMATE.start_ULTIMATE.startEXIT_21_Bool (= .x.275 .x.279))) .def_100))) (and (and (and .loc.6 .loc.12) .def_107) .def_110)) (and (or hbv_ULTIMATE.start_L2-1_21_Bool .def_113) (and .def_37 (and (and .def_100 (and .loc.11 (and .loc.10 (and .loc.5 .def_118)))) .def_123)))) (and (and (and .def_129 .def_131) .def_134) .def_137)) (and (or hbv_ULTIMATE.start_L2-1_21_Bool (and (= .x.283 (ite (= .x.280 43) 1 0)) (and (= .x.280 (select .def_148 (+ hhv_ULTIMATE.start_ULTIMATE.startEXIT_12_Int (* 4 hhv_ULTIMATE.start_ULTIMATE.startEXIT_20_Int)))) (and (= .x.278 .x.283) (not .def_153))))) (and .def_37 (and .def_123 (and .def_100 (and .def_107 (and .loc.11 (and .loc.9 (and .def_89 .def_118))))))))) (and .loc.7 (and .def_169 .def_171))) (and (or hhv_ULTIMATE.start_ULTIMATE.startEXIT_21_Bool (= (+ hhv_ULTIMATE.start_ULTIMATE.startEXIT_20_Int (* (- 1) .x.284)) (- 1))) (and .def_39 (and .def_37 (and .def_123 (and .def_100 (and .def_107 (and .def_137 (and .loc.11 (and .def_89 (and .def_134 .def_181))))))))))) (and (or hbv_ULTIMATE.start_L2-1_21_Bool (= .x.284 0)) (and .def_39 (and .def_123 (and .def_100 (and .def_107 (and .def_137 (and .loc.11 (and .loc.6 (and .loc.5 .def_197)))))))))) (and .def_37 (and .def_123 (and .def_100 (and .loc.11 (and .loc.10 (and .loc.9 (and .def_89 (and .loc.7 .def_217))))))))) (and (or hbv_ULTIMATE.start_L2-1_21_Bool .def_153) (and .def_37 (and .def_123 (and .def_100 (and .loc.11 (and .loc.10 (and .loc.9 (and .def_89 (and .loc.7 .def_228)))))))))) (and .def_39 (and .def_123 (and .def_100 (and .def_110 (and .loc.10 (and .loc.9 (and .def_89 (and .loc.6 .def_217))))))))) (and (or hbv_ULTIMATE.start_L2-1_21_Bool .def_248) (and .def_39 (and .def_123 (and .def_100 (and .def_110 (and .loc.10 (and .loc.9 .def_251)))))))) (and .def_261 .def_263)) (and (or hbv_ULTIMATE.start_L2-1_21_Bool (and (not .def_248) (and (= .x.267 (store hhv_ULTIMATE.start_ULTIMATE.startEXIT_3_Array_Int_Array_Int_Int hhv_ULTIMATE.start_ULTIMATE.startEXIT_13_Int (store .def_148 (+ hhv_ULTIMATE.start_ULTIMATE.startEXIT_12_Int (* 4 hhv_ULTIMATE.start_ULTIMATE.startEXIT_17_Int)) 42))) (= (+ hhv_ULTIMATE.start_ULTIMATE.startEXIT_17_Int (* (- 1) .x.281)) (- 1))))) (and .def_39 (and .def_123 (and .def_100 (and .def_110 (and .def_137 (and .loc.10 .def_251)))))))) (and (or hbv_ULTIMATE.start_L2-1_21_Bool (not .def_113)) (and .def_37 (and .def_123 (and .def_100 (and .def_110 (and .def_107 (and .def_137 (and .loc.7 (and .loc.5 (and .def_169 (and .def_134 (and .def_171 (and .def_261 (and .def_129 (and .def_87 (and .def_131 (and .def_84 (and .def_81 (and .def_78 (and .def_74 .def_263))))))))))))))))))))) (and .def_123 (and .def_100 (and .def_110 (and .def_107 (and .def_137 (and .def_89 (and .loc.7 (and .loc.6 (and .def_169 (and .def_134 (and .def_171 (and .def_261 (and .def_129 (and .def_87 (and .def_131 (and .def_84 (and .def_81 (and .def_78 (and .def_208 .def_263)))))))))))))))))))) (and (= hhv_ULTIMATE.start_ULTIMATE.startEXIT_9_Int .x.273) (and (= hhv_ULTIMATE.start_ULTIMATE.startEXIT_5_Int .x.269) (= hhv_ULTIMATE.start_ULTIMATE.startEXIT_7_Array_Int_Int .x.271)))) (and (or hbv_ULTIMATE.start_L2-1_21_Bool (and (and (= .x.269 0) (= .x.273 0)) (= hbv_ULTIMATE.start_L-1_1_Array_Int_Int (store hhv_ULTIMATE.start_ULTIMATE.startEXIT_1_Array_Int_Int 0 0)))) (and (or hhv_ULTIMATE.start_ULTIMATE.startEXIT_21_Bool (and (and (and (and (and (and (= .x.271 (store hhv_ULTIMATE.start_ULTIMATE.startEXIT_7_Array_Int_Int .x.277 400000)) (= (select hbv_ULTIMATE.start_L-1_1_Array_Int_Int .x.277) 0)) (not (= .x.277 0))) (= .x.265 (store hbv_ULTIMATE.start_L-1_1_Array_Int_Int .x.277 1))) (= .x.281 0)) (not (<= .x.264 .x.277))) (= .x.276 0))) (and .def_39 (and .def_37 (and .def_123 (and .def_100 (and .def_110 (and .def_137 (and .loc.10 (and .loc.5 (and .def_134 (and .def_131 (and .def_78 .def_263)))))))))))))))))))))))))))))))))))))))))))))))) (state |.x.264| |.x.265| |.x.266| |.x.267| |.x.268| |.x.269| |.x.270| |.x.271| |.x.272| |.x.273| |.x.274| |.x.275| |.x.276| |.x.277| |.x.278| |.x.279| |.x.280| |.x.281| |.x.282| |.x.283| |.x.284| |hhv_ULTIMATE.start_ULTIMATE.startEXIT_21_Bool| |.loc.9| |.loc.10| |.loc.11| |.loc.12| |.xtv.1|))))
(assert (forall ((|hhv_ULTIMATE.start_ULTIMATE.startEXIT_0_Int| Int) (|hhv_ULTIMATE.start_ULTIMATE.startEXIT_1_Array_Int_Int| (Array Int Int)) (|hhv_ULTIMATE.start_ULTIMATE.startEXIT_2_Array_Int_Int| (Array Int Int)) (|hhv_ULTIMATE.start_ULTIMATE.startEXIT_3_Array_Int_Array_Int_Int| (Array Int Int)) (|hhv_ULTIMATE.start_ULTIMATE.startEXIT_4_Array_Int_Array_Int_Int| (Array Int Int)) (|hhv_ULTIMATE.start_ULTIMATE.startEXIT_5_Int| Int) (|hhv_ULTIMATE.start_ULTIMATE.startEXIT_6_Int| Int) (|hhv_ULTIMATE.start_ULTIMATE.startEXIT_7_Array_Int_Int| (Array Int Int)) (|hhv_ULTIMATE.start_ULTIMATE.startEXIT_8_Array_Int_Int| (Array Int Int)) (|hhv_ULTIMATE.start_ULTIMATE.startEXIT_9_Int| Int) (|hhv_ULTIMATE.start_ULTIMATE.startEXIT_10_Int| Int) (|hhv_ULTIMATE.start_ULTIMATE.startEXIT_11_Int| Int) (|hhv_ULTIMATE.start_ULTIMATE.startEXIT_12_Int| Int) (|hhv_ULTIMATE.start_ULTIMATE.startEXIT_13_Int| Int) (|hhv_ULTIMATE.start_ULTIMATE.startEXIT_14_Int| Int) (|hhv_ULTIMATE.start_ULTIMATE.startEXIT_15_Int| Int) (|hhv_ULTIMATE.start_ULTIMATE.startEXIT_16_Int| Int) (|hhv_ULTIMATE.start_ULTIMATE.startEXIT_17_Int| Int) (|hhv_ULTIMATE.start_ULTIMATE.startEXIT_18_Int| Int) (|hhv_ULTIMATE.start_ULTIMATE.startEXIT_19_Int| Int) (|hhv_ULTIMATE.start_ULTIMATE.startEXIT_20_Int| Int) (|hbv_ULTIMATE.start_L2-1_21_Bool| Bool) (|.loc.5| Bool) (|.loc.6| Bool) (|.loc.7| Bool) (|.loc.8| Bool) (|hbv_ULTIMATE.start_L-1_1_Array_Int_Int| (Array Int Int)) (|.x.274| Int) (|.x.272| (Array Int Int)) (|.x.270| Int) (|.x.268| (Array Int Int)) (|.x.264| Int) (|.x.266| (Array Int Int)) (|.x.265| (Array Int Int)) (|hhv_ULTIMATE.start_ULTIMATE.startEXIT_21_Bool| Bool) (|.x.275| Int) (|.x.276| Int) (|.x.277| Int) (|.x.279| Int) (|.loc.12| Bool) (|.loc.10| Bool) (|.loc.11| Bool) (|.x.280| Int) (|.x.278| Int) (|.x.283| Int) (|.loc.9| Bool) (|.x.284| Int) (|.x.282| Int) (|.x.281| Int) (|.x.267| (Array Int Int)) (|.x.273| Int) (|.x.269| Int) (|.x.271| (Array Int Int)) (|.xtv.1| (Array Int Int))) (=> (state |hhv_ULTIMATE.start_ULTIMATE.startEXIT_0_Int| |hhv_ULTIMATE.start_ULTIMATE.startEXIT_1_Array_Int_Int| |hhv_ULTIMATE.start_ULTIMATE.startEXIT_2_Array_Int_Int| |hhv_ULTIMATE.start_ULTIMATE.startEXIT_3_Array_Int_Array_Int_Int| |hhv_ULTIMATE.start_ULTIMATE.startEXIT_4_Array_Int_Array_Int_Int| |hhv_ULTIMATE.start_ULTIMATE.startEXIT_5_Int| |hhv_ULTIMATE.start_ULTIMATE.startEXIT_6_Int| |hhv_ULTIMATE.start_ULTIMATE.startEXIT_7_Array_Int_Int| |hhv_ULTIMATE.start_ULTIMATE.startEXIT_8_Array_Int_Int| |hhv_ULTIMATE.start_ULTIMATE.startEXIT_9_Int| |hhv_ULTIMATE.start_ULTIMATE.startEXIT_10_Int| |hhv_ULTIMATE.start_ULTIMATE.startEXIT_11_Int| |hhv_ULTIMATE.start_ULTIMATE.startEXIT_12_Int| |hhv_ULTIMATE.start_ULTIMATE.startEXIT_13_Int| |hhv_ULTIMATE.start_ULTIMATE.startEXIT_14_Int| |hhv_ULTIMATE.start_ULTIMATE.startEXIT_15_Int| |hhv_ULTIMATE.start_ULTIMATE.startEXIT_16_Int| |hhv_ULTIMATE.start_ULTIMATE.startEXIT_17_Int| |hhv_ULTIMATE.start_ULTIMATE.startEXIT_18_Int| |hhv_ULTIMATE.start_ULTIMATE.startEXIT_19_Int| |hhv_ULTIMATE.start_ULTIMATE.startEXIT_20_Int| |hbv_ULTIMATE.start_L2-1_21_Bool| |.loc.5| |.loc.6| |.loc.7| |.loc.8| |hbv_ULTIMATE.start_L-1_1_Array_Int_Int|) (not (and hbv_ULTIMATE.start_L2-1_21_Bool (and .loc.8 (and (not .loc.7) (and (not .loc.6) (not .loc.5)))))))))
(check-sat)
